38 99 98 9 11 49 34 48 70 
42 69 36 59 21 84 23 86 78 50 94 4 89 77 17 
65 51 57 91 74 
63 95 82 27 29 39 71 88 73 16 53 81 66 68 55 24 97 13 60 93 80 
14 62 33 44 5 45 2 90 75 18 85 56 22 20 46 3 37 43 1 25 
92 72 83 52 15 19 30 28 31 76 67 7 41 26 96 32 
47 12 61 40 64 8 79 10 87 6 54 58 100 35 

